problem_generation/data/GISP/train/er_n=65_m=1240_p=0.60_SET2_setparam=100.00_alpha=0.50_807.lp
maximize
OBJ:100x0 + 100x1 + 100x2 + 100x3 + 100x4 + 100x5 + 100x6 + 100x7 + 100x8 + 100x9 + 100x10 + 100x11 + 100x12 + 100x13 + 100x14 + 100x15 + 100x16 + 100x17 + 100x18 + 100x19 + 100x20 + 100x21 + 100x22 + 100x23 + 100x24 + 100x25 + 100x26 + 100x27 + 100x28 + 100x29 + 100x30 + 100x31 + 100x32 + 100x33 + 100x34 + 100x35 + 100x36 + 100x37 + 100x38 + 100x39 + 100x40 + 100x41 + 100x42 + 100x43 + 100x44 + 100x45 + 100x46 + 100x47 + 100x48 + 100x49 + 100x50 + 100x51 + 100x52 + 100x53 + 100x54 + 100x55 + 100x56 + 100x57 + 100x58 + 100x59 + 100x60 + 100x61 + 100x62 + 100x63 + 100x64 - y7_17 - y36_53 - y15_30 - y47_53 - y17_58 - y7_35 - y18_35 - y29_32 - y8_9 - y0_5 - y29_41 - y8_18 - y40_41 - y0_14 - y40_50 - y11_23 - y21_55 - y33_47 - y25_43 - y33_56 - y14_15 - y3_33 - y22_46 - y14_42 - y15_16 - y7_12 - y47_48 - y15_25 - y17_44 - y7_21 - y18_21 - y36_57 - y9_49 - y28_62 - y0_9 - y29_54 - y21_59 - y2_45 - y25_47 - y22_23 - y51_59 - y3_19 - y14_19 - y22_32 - y43_64 - y13_60 - y36_61 - y6_38 - y48_53 - y29_49 - y40_49 - y6_56 - y10_26 - y62_64 - y2_22 - y3_5 - y43_50 - y14_23 - y1_53 - y13_55 - y14_32 - y16_51 - y35_55 - y1_62 - y13_64 - y35_64 - y16_60 - y36_56 - y9_39 - y9_48 - y28_61 - y6_42 - y40_44 - y10_21 - y2_17 - y31_53 - y54_55 - y10_39 - y12_58 - y2_35 - y13_32 - y43_45 - y24_41 - y43_54 - y1_48 - y24_50 - y16_46 - y1_57 - y24_59 - y28_29 - y9_25 - y36_51 - y6_10 - y17_56 - y6_19 - y50_53 - y5_63 - y29_30 - y20_39 - y39_52 - y12_44 - y2_21 - y31_57 - y23_62 - y13_36 - y24_36 - y35_45 - y13_54 - y35_54 - y13_63 - y35_63 - y17_24 - y57_60 - y9_29 - y17_42 - y9_38 - y5_49 - y6_23 - y50_57 - y0_56 - y39_47 - y31_43 - y39_56 - y12_48 - y13_22 - y32_35 - y13_40 - y24_40 - y1_47 - y1_56 - y46_55 - y38_51 - y5_26 - y46_64 - y9_24 - y38_60 - y17_37 - y28_37 - y5_44 - y27_41 - y6_18 - y50_52 - y30_46 - y50_61 - y8_55 - y19_55 - y11_51 - y30_64 - y20_29 - y23_34 - y39_60 - y31_56 - y4_39 - y1_15 - y13_17 - y4_48 - y12_61 - y23_61 - y16_22 - y24_44 - y35_44 - y16_49 - y5_12 - y17_23 - y9_19 - y49_55 - y9_28 - y26_62 - y18_58 - y8_41 - y42_43 - y50_56 - y0_37 - y19_50 - y42_52 - y27_63 - y0_46 - y8_59 - y20_24 - y30_59 - y42_61 - y20_33 - y23_47 - y12_56 - y1_19 - y23_56 - y53_57 - y4_61 - y34_62 - y1_37 - y37_58 - y16_35 - y1_46 - y5_7 - y5_16 - y26_48 - y57_63 - y7_44 - y8_36 - y11_41 - y19_54 - y11_50 - y8_63 - y4_11 - y0_59 - y23_24 - y12_42 - y1_5 - y4_38 - y13_16 - y1_23 - y34_57 - y37_53 - y16_30 - y37_62 - y15_34 - y5_11 - y15_43 - y46_58 - y7_39 - y57_58 - y26_52 - y26_61 - y38_63 - y18_57 - y19_31 - y27_44 - y8_49 - y41_46 - y30_58 - y20_23 - y0_54 - y11_54 - y12_19 - y31_32 - y12_28 - y23_28 - y52_64 - y4_33 - y22_41 - y37_39 - y22_50 - y34_52 - y45_52 - y22_59 - y56_61 - y3_64 - y14_64 - y5_6 - y18_25 - y38_40 - y38_49 - y15_56 - y11_13 - y18_61 - y27_39 - y11_22 - y30_35 - y8_44 - y19_44 - y11_40 - y4_10 - y33_55 - y44_55 - y44_64 - y34_38 - y3_32 - y22_45 - y3_41 - y22_54 - y14_50 - y3_59 - y14_59 - y7_20 - y18_20 - y26_42 - y18_38 - y7_56 - y11_17 - y40_53 - y6_60 - y41_54 - y52_54 - y44_50 - y41_63 - y25_46 - y10_57 - y44_59 - y2_53 - y3_27 - y3_36 - y14_36 - y34_51 - y45_51 - y22_58 - y26_28 - y18_24 - y47_60 - y59_62 - y18_42 - y0_3 - y29_39 - y29_48 - y40_48 - y19_25 - y21_44 - y11_21 - y21_53 - y33_36 - y10_43 - y33_54 - y44_54 - y10_61 - y3_22 - y22_35 - y14_31 - y22_44 - y3_40 - y3_49 - y15_23 - y55_59 - y26_32 - y17_51 - y28_51 - y18_28 - y7_37 - y29_43 - y21_39 - y6_50 - y29_61 - y2_25 - y25_27 - y10_38 - y25_45 - y10_56 - y51_57 - y25_54 - y3_17 - y24_58 - y3_44 - y16_63 - y7_14 - y36_50 - y47_50 - y18_23 - y47_59 - y5_53 - y17_55 - y9_60 - y48_51 - y29_47 - y40_47 - y21_43 - y6_54 - y2_20 - y54_58 - y10_33 - y25_31 - y10_42 - y2_47 - y32_48 - y2_56 - y3_21 - y32_57 - y24_53 - y35_53 - y14_30 - y16_58 - y17_32 - y36_45 - y55_58 - y17_41 - y36_63 - y9_64 - y21_29 - y29_42 - y21_47 - y2_6 - y10_19 - y2_15 - y39_64 - y20_60 - y31_60 - y24_39 - y3_16 - y14_16 - y14_25 - y5_52 - y6_17 - y28_54 - y9_50 - y28_63 - y58_64 - y6_44 - y21_42 - y10_14 - y20_46 - y39_59 - y12_51 - y13_25 - y4_56 - y13_34 - y3_11 - y43_47 - y51_60 - y1_41 - y24_43 - y35_43 - y36_44 - y9_27 - y5_38 - y17_40 - y28_40 - y17_49 - y9_45 - y5_56 - y42_51 - y6_39 - y19_58 - y2_14 - y31_50 - y23_46 - y2_23 - y20_59 - y31_59 - y23_55 - y54_61 - y4_51 - y32_33 - y24_29 - y16_25 - y51_55 - y13_38 - y1_45 - y35_47 - y46_53 - y1_63 - y9_13 - y57_62 - y36_39 - y28_35 - y5_42 - y5_51 - y6_16 - y27_57 - y8_62 - y19_62 - y30_62 - y11_58 - y39_40 - y39_49 - y23_32 - y2_9 - y39_58 - y2_18 - y4_37 - y31_54 - y12_50 - y4_64 - y32_46 - y24_42 - y16_38 - y24_51 - y35_51 - y16_47 - y5_10 - y46_57 - y28_30 - y15_60 - y27_52 - y19_48 - y30_48 - y27_61 - y50_63 - y12_18 - y23_27 - y31_40 - y39_53 - y12_45 - y23_45 - y31_58 - y23_54 - y1_17 - y4_50 - y34_60 - y45_60 - y16_33 - y16_42 - y5_14 - y46_52 - y9_12 - y15_46 - y26_55 - y5_32 - y7_51 - y18_51 - y27_29 - y8_25 - y8_34 - y19_34 - y30_43 - y42_45 - y0_39 - y11_39 - y42_54 - y12_13 - y19_61 - y20_26 - y60_62 - y12_22 - y20_35 - y4_18 - y12_31 - y23_31 - y20_44 - y23_49 - y13_14 - y45_46 - y16_19 - y22_62 - y34_64 - y45_64 - y5_9 - y15_41 - y26_41 - y9_16 - y15_50 - y7_46 - y15_59 - y18_55 - y0_25 - y30_38 - y19_47 - y20_21 - y41_53 - y20_30 - y11_61 - y1_7 - y34_41 - y1_16 - y22_48 - y37_46 - y22_57 - y45_59 - y14_62 - y46_51 - y7_32 - y49_56 - y7_50 - y8_42 - y19_42 - y60_61 - y41_57 - y25_49 - y4_26 - y44_62 - y1_2 - y25_58 - y53_58 - y3_39 - y34_54 - y45_54 - y14_48 - y34_63 - y56_63 - y37_59 - y18_27 - y37_49 - y15_40 - y7_36 - y7_45 - y15_58 - y26_58 - y48_55 - y27_32 - y19_28 - y0_24 - y40_60 - y21_56 - y0_33 - y41_43 - y10_46 - y25_44 - y4_21 - y44_57 - y25_53 - y3_34 - y22_47 - y45_49 - y37_45 - y14_61 - y15_35 - y18_31 - y26_44 - y40_46 - y19_23 - y48_59 - y0_19 - y30_32 - y21_51 - y0_28 - y11_28 - y29_64 - y40_64 - y33_34 - y41_56 - y33_52 - y44_52 - y10_59 - y22_24 - y44_61 - y25_57 - y3_20 - y22_33 - y34_44 - y14_38 - y22_51 - y14_47 - y7_8 - y14_56
 Subject to
C1: x0+x1 <=1 
C2: x0+x2 <=1 
C3: x0+x3-y0_3 <=1 
C4: x0+x5-y0_5 <=1 
C5: x0+x6 <=1 
C6: x0+x8 <=1 
C7: x0+x9-y0_9 <=1 
C8: x0+x11 <=1 
C9: x0+x14-y0_14 <=1 
C10: x0+x17 <=1 
C11: x0+x19-y0_19 <=1 
C12: x0+x22 <=1 
C13: x0+x24-y0_24 <=1 
C14: x0+x25-y0_25 <=1 
C15: x0+x26 <=1 
C16: x0+x27 <=1 
C17: x0+x28-y0_28 <=1 
C18: x0+x29 <=1 
C19: x0+x30 <=1 
C20: x0+x31 <=1 
C21: x0+x33-y0_33 <=1 
C22: x0+x36 <=1 
C23: x0+x37-y0_37 <=1 
C24: x0+x39-y0_39 <=1 
C25: x0+x40 <=1 
C26: x0+x41 <=1 
C27: x0+x44 <=1 
C28: x0+x45 <=1 
C29: x0+x46-y0_46 <=1 
C30: x0+x49 <=1 
C31: x0+x51 <=1 
C32: x0+x53 <=1 
C33: x0+x54-y0_54 <=1 
C34: x0+x55 <=1 
C35: x0+x56-y0_56 <=1 
C36: x0+x58 <=1 
C37: x0+x59-y0_59 <=1 
C38: x0+x60 <=1 
C39: x0+x61 <=1 
C40: x0+x63 <=1 
C41: x1+x2-y1_2 <=1 
C42: x1+x4 <=1 
C43: x1+x5-y1_5 <=1 
C44: x1+x6 <=1 
C45: x1+x7-y1_7 <=1 
C46: x1+x12 <=1 
C47: x1+x14 <=1 
C48: x1+x15-y1_15 <=1 
C49: x1+x16-y1_16 <=1 
C50: x1+x17-y1_17 <=1 
C51: x1+x19-y1_19 <=1 
C52: x1+x20 <=1 
C53: x1+x23-y1_23 <=1 
C54: x1+x28 <=1 
C55: x1+x30 <=1 
C56: x1+x31 <=1 
C57: x1+x32 <=1 
C58: x1+x37-y1_37 <=1 
C59: x1+x38 <=1 
C60: x1+x39 <=1 
C61: x1+x41-y1_41 <=1 
C62: x1+x44 <=1 
C63: x1+x45-y1_45 <=1 
C64: x1+x46-y1_46 <=1 
C65: x1+x47-y1_47 <=1 
C66: x1+x48-y1_48 <=1 
C67: x1+x49 <=1 
C68: x1+x50 <=1 
C69: x1+x51 <=1 
C70: x1+x52 <=1 
C71: x1+x53-y1_53 <=1 
C72: x1+x54 <=1 
C73: x1+x56-y1_56 <=1 
C74: x1+x57-y1_57 <=1 
C75: x1+x61 <=1 
C76: x1+x62-y1_62 <=1 
C77: x1+x63-y1_63 <=1 
C78: x2+x3 <=1 
C79: x2+x5 <=1 
C80: x2+x6-y2_6 <=1 
C81: x2+x7 <=1 
C82: x2+x9-y2_9 <=1 
C83: x2+x14-y2_14 <=1 
C84: x2+x15-y2_15 <=1 
C85: x2+x17-y2_17 <=1 
C86: x2+x18-y2_18 <=1 
C87: x2+x20-y2_20 <=1 
C88: x2+x21-y2_21 <=1 
C89: x2+x22-y2_22 <=1 
C90: x2+x23-y2_23 <=1 
C91: x2+x25-y2_25 <=1 
C92: x2+x26 <=1 
C93: x2+x27 <=1 
C94: x2+x28 <=1 
C95: x2+x29 <=1 
C96: x2+x30 <=1 
C97: x2+x32 <=1 
C98: x2+x33 <=1 
C99: x2+x34 <=1 
C100: x2+x35-y2_35 <=1 
C101: x2+x36 <=1 
C102: x2+x37 <=1 
C103: x2+x38 <=1 
C104: x2+x39 <=1 
C105: x2+x40 <=1 
C106: x2+x41 <=1 
C107: x2+x44 <=1 
C108: x2+x45-y2_45 <=1 
C109: x2+x46 <=1 
C110: x2+x47-y2_47 <=1 
C111: x2+x52 <=1 
C112: x2+x53-y2_53 <=1 
C113: x2+x55 <=1 
C114: x2+x56-y2_56 <=1 
C115: x2+x59 <=1 
C116: x2+x63 <=1 
C117: x3+x4 <=1 
C118: x3+x5-y3_5 <=1 
C119: x3+x6 <=1 
C120: x3+x9 <=1 
C121: x3+x10 <=1 
C122: x3+x11-y3_11 <=1 
C123: x3+x12 <=1 
C124: x3+x16-y3_16 <=1 
C125: x3+x17-y3_17 <=1 
C126: x3+x18 <=1 
C127: x3+x19-y3_19 <=1 
C128: x3+x20-y3_20 <=1 
C129: x3+x21-y3_21 <=1 
C130: x3+x22-y3_22 <=1 
C131: x3+x24 <=1 
C132: x3+x27-y3_27 <=1 
C133: x3+x28 <=1 
C134: x3+x30 <=1 
C135: x3+x31 <=1 
C136: x3+x32-y3_32 <=1 
C137: x3+x33-y3_33 <=1 
C138: x3+x34-y3_34 <=1 
C139: x3+x35 <=1 
C140: x3+x36-y3_36 <=1 
C141: x3+x38 <=1 
C142: x3+x39-y3_39 <=1 
C143: x3+x40-y3_40 <=1 
C144: x3+x41-y3_41 <=1 
C145: x3+x44-y3_44 <=1 
C146: x3+x49-y3_49 <=1 
C147: x3+x50 <=1 
C148: x3+x53 <=1 
C149: x3+x59-y3_59 <=1 
C150: x3+x60 <=1 
C151: x3+x62 <=1 
C152: x3+x63 <=1 
C153: x3+x64-y3_64 <=1 
C154: x4+x5 <=1 
C155: x4+x6 <=1 
C156: x4+x8 <=1 
C157: x4+x10-y4_10 <=1 
C158: x4+x11-y4_11 <=1 
C159: x4+x12 <=1 
C160: x4+x13 <=1 
C161: x4+x14 <=1 
C162: x4+x15 <=1 
C163: x4+x17 <=1 
C164: x4+x18-y4_18 <=1 
C165: x4+x19 <=1 
C166: x4+x21-y4_21 <=1 
C167: x4+x22 <=1 
C168: x4+x23 <=1 
C169: x4+x26-y4_26 <=1 
C170: x4+x27 <=1 
C171: x4+x31 <=1 
C172: x4+x32 <=1 
C173: x4+x33-y4_33 <=1 
C174: x4+x35 <=1 
C175: x4+x36 <=1 
C176: x4+x37-y4_37 <=1 
C177: x4+x38-y4_38 <=1 
C178: x4+x39-y4_39 <=1 
C179: x4+x45 <=1 
C180: x4+x48-y4_48 <=1 
C181: x4+x49 <=1 
C182: x4+x50-y4_50 <=1 
C183: x4+x51-y4_51 <=1 
C184: x4+x52 <=1 
C185: x4+x53 <=1 
C186: x4+x55 <=1 
C187: x4+x56-y4_56 <=1 
C188: x4+x60 <=1 
C189: x4+x61-y4_61 <=1 
C190: x4+x63 <=1 
C191: x4+x64-y4_64 <=1 
C192: x5+x6-y5_6 <=1 
C193: x5+x7-y5_7 <=1 
C194: x5+x8 <=1 
C195: x5+x9-y5_9 <=1 
C196: x5+x10-y5_10 <=1 
C197: x5+x11-y5_11 <=1 
C198: x5+x12-y5_12 <=1 
C199: x5+x14-y5_14 <=1 
C200: x5+x16-y5_16 <=1 
C201: x5+x17 <=1 
C202: x5+x23 <=1 
C203: x5+x26-y5_26 <=1 
C204: x5+x28 <=1 
C205: x5+x32-y5_32 <=1 
C206: x5+x33 <=1 
C207: x5+x38-y5_38 <=1 
C208: x5+x40 <=1 
C209: x5+x41 <=1 
C210: x5+x42-y5_42 <=1 
C211: x5+x43 <=1 
C212: x5+x44-y5_44 <=1 
C213: x5+x45 <=1 
C214: x5+x46 <=1 
C215: x5+x47 <=1 
C216: x5+x49-y5_49 <=1 
C217: x5+x50 <=1 
C218: x5+x51-y5_51 <=1 
C219: x5+x52-y5_52 <=1 
C220: x5+x53-y5_53 <=1 
C221: x5+x54 <=1 
C222: x5+x55 <=1 
C223: x5+x56-y5_56 <=1 
C224: x5+x59 <=1 
C225: x5+x62 <=1 
C226: x5+x63-y5_63 <=1 
C227: x6+x8 <=1 
C228: x6+x9 <=1 
C229: x6+x10-y6_10 <=1 
C230: x6+x12 <=1 
C231: x6+x14 <=1 
C232: x6+x16-y6_16 <=1 
C233: x6+x17-y6_17 <=1 
C234: x6+x18-y6_18 <=1 
C235: x6+x19-y6_19 <=1 
C236: x6+x20 <=1 
C237: x6+x21 <=1 
C238: x6+x22 <=1 
C239: x6+x23-y6_23 <=1 
C240: x6+x27 <=1 
C241: x6+x29 <=1 
C242: x6+x32 <=1 
C243: x6+x33 <=1 
C244: x6+x34 <=1 
C245: x6+x36 <=1 
C246: x6+x37 <=1 
C247: x6+x38-y6_38 <=1 
C248: x6+x39-y6_39 <=1 
C249: x6+x40 <=1 
C250: x6+x41 <=1 
C251: x6+x42-y6_42 <=1 
C252: x6+x44-y6_44 <=1 
C253: x6+x45 <=1 
C254: x6+x48 <=1 
C255: x6+x49 <=1 
C256: x6+x50-y6_50 <=1 
C257: x6+x51 <=1 
C258: x6+x54-y6_54 <=1 
C259: x6+x56-y6_56 <=1 
C260: x6+x59 <=1 
C261: x6+x60-y6_60 <=1 
C262: x6+x64 <=1 
C263: x7+x8-y7_8 <=1 
C264: x7+x9 <=1 
C265: x7+x10 <=1 
C266: x7+x12-y7_12 <=1 
C267: x7+x14-y7_14 <=1 
C268: x7+x15 <=1 
C269: x7+x16 <=1 
C270: x7+x17-y7_17 <=1 
C271: x7+x18 <=1 
C272: x7+x20-y7_20 <=1 
C273: x7+x21-y7_21 <=1 
C274: x7+x24 <=1 
C275: x7+x25 <=1 
C276: x7+x27 <=1 
C277: x7+x28 <=1 
C278: x7+x29 <=1 
C279: x7+x31 <=1 
C280: x7+x32-y7_32 <=1 
C281: x7+x35-y7_35 <=1 
C282: x7+x36-y7_36 <=1 
C283: x7+x37-y7_37 <=1 
C284: x7+x38 <=1 
C285: x7+x39-y7_39 <=1 
C286: x7+x40 <=1 
C287: x7+x41 <=1 
C288: x7+x44-y7_44 <=1 
C289: x7+x45-y7_45 <=1 
C290: x7+x46-y7_46 <=1 
C291: x7+x50-y7_50 <=1 
C292: x7+x51-y7_51 <=1 
C293: x7+x56-y7_56 <=1 
C294: x7+x64 <=1 
C295: x8+x9-y8_9 <=1 
C296: x8+x12 <=1 
C297: x8+x17 <=1 
C298: x8+x18-y8_18 <=1 
C299: x8+x19 <=1 
C300: x8+x20 <=1 
C301: x8+x22 <=1 
C302: x8+x25-y8_25 <=1 
C303: x8+x28 <=1 
C304: x8+x34-y8_34 <=1 
C305: x8+x35 <=1 
C306: x8+x36-y8_36 <=1 
C307: x8+x38 <=1 
C308: x8+x40 <=1 
C309: x8+x41-y8_41 <=1 
C310: x8+x42-y8_42 <=1 
C311: x8+x43 <=1 
C312: x8+x44-y8_44 <=1 
C313: x8+x47 <=1 
C314: x8+x49-y8_49 <=1 
C315: x8+x54 <=1 
C316: x8+x55-y8_55 <=1 
C317: x8+x58 <=1 
C318: x8+x59-y8_59 <=1 
C319: x8+x62-y8_62 <=1 
C320: x8+x63-y8_63 <=1 
C321: x9+x10 <=1 
C322: x9+x12-y9_12 <=1 
C323: x9+x13-y9_13 <=1 
C324: x9+x15 <=1 
C325: x9+x16-y9_16 <=1 
C326: x9+x19-y9_19 <=1 
C327: x9+x20 <=1 
C328: x9+x23 <=1 
C329: x9+x24-y9_24 <=1 
C330: x9+x25-y9_25 <=1 
C331: x9+x27-y9_27 <=1 
C332: x9+x28-y9_28 <=1 
C333: x9+x29-y9_29 <=1 
C334: x9+x32 <=1 
C335: x9+x37 <=1 
C336: x9+x38-y9_38 <=1 
C337: x9+x39-y9_39 <=1 
C338: x9+x41 <=1 
C339: x9+x42 <=1 
C340: x9+x45-y9_45 <=1 
C341: x9+x46 <=1 
C342: x9+x48-y9_48 <=1 
C343: x9+x49-y9_49 <=1 
C344: x9+x50-y9_50 <=1 
C345: x9+x53 <=1 
C346: x9+x54 <=1 
C347: x9+x55 <=1 
C348: x9+x56 <=1 
C349: x9+x57 <=1 
C350: x9+x58 <=1 
C351: x9+x60-y9_60 <=1 
C352: x9+x64-y9_64 <=1 
C353: x10+x12 <=1 
C354: x10+x13 <=1 
C355: x10+x14-y10_14 <=1 
C356: x10+x15 <=1 
C357: x10+x18 <=1 
C358: x10+x19-y10_19 <=1 
C359: x10+x21-y10_21 <=1 
C360: x10+x23 <=1 
C361: x10+x24 <=1 
C362: x10+x25 <=1 
C363: x10+x26-y10_26 <=1 
C364: x10+x28 <=1 
C365: x10+x29 <=1 
C366: x10+x33-y10_33 <=1 
C367: x10+x35 <=1 
C368: x10+x38-y10_38 <=1 
C369: x10+x39-y10_39 <=1 
C370: x10+x42-y10_42 <=1 
C371: x10+x43-y10_43 <=1 
C372: x10+x44 <=1 
C373: x10+x45 <=1 
C374: x10+x46-y10_46 <=1 
C375: x10+x52 <=1 
C376: x10+x53 <=1 
C377: x10+x56-y10_56 <=1 
C378: x10+x57-y10_57 <=1 
C379: x10+x59-y10_59 <=1 
C380: x10+x60 <=1 
C381: x10+x61-y10_61 <=1 
C382: x11+x13-y11_13 <=1 
C383: x11+x15 <=1 
C384: x11+x17-y11_17 <=1 
C385: x11+x19 <=1 
C386: x11+x20 <=1 
C387: x11+x21-y11_21 <=1 
C388: x11+x22-y11_22 <=1 
C389: x11+x23-y11_23 <=1 
C390: x11+x25 <=1 
C391: x11+x27 <=1 
C392: x11+x28-y11_28 <=1 
C393: x11+x33 <=1 
C394: x11+x38 <=1 
C395: x11+x39-y11_39 <=1 
C396: x11+x40-y11_40 <=1 
C397: x11+x41-y11_41 <=1 
C398: x11+x44 <=1 
C399: x11+x47 <=1 
C400: x11+x48 <=1 
C401: x11+x50-y11_50 <=1 
C402: x11+x51-y11_51 <=1 
C403: x11+x53 <=1 
C404: x11+x54-y11_54 <=1 
C405: x11+x58-y11_58 <=1 
C406: x11+x59 <=1 
C407: x11+x61-y11_61 <=1 
C408: x11+x63 <=1 
C409: x11+x64 <=1 
C410: x12+x13-y12_13 <=1 
C411: x12+x15 <=1 
C412: x12+x18-y12_18 <=1 
C413: x12+x19-y12_19 <=1 
C414: x12+x20 <=1 
C415: x12+x22-y12_22 <=1 
C416: x12+x28-y12_28 <=1 
C417: x12+x29 <=1 
C418: x12+x31-y12_31 <=1 
C419: x12+x35 <=1 
C420: x12+x36 <=1 
C421: x12+x37 <=1 
C422: x12+x38 <=1 
C423: x12+x39 <=1 
C424: x12+x40 <=1 
C425: x12+x42-y12_42 <=1 
C426: x12+x43 <=1 
C427: x12+x44-y12_44 <=1 
C428: x12+x45-y12_45 <=1 
C429: x12+x48-y12_48 <=1 
C430: x12+x50-y12_50 <=1 
C431: x12+x51-y12_51 <=1 
C432: x12+x52 <=1 
C433: x12+x56-y12_56 <=1 
C434: x12+x57 <=1 
C435: x12+x58-y12_58 <=1 
C436: x12+x59 <=1 
C437: x12+x60 <=1 
C438: x12+x61-y12_61 <=1 
C439: x12+x62 <=1 
C440: x13+x14-y13_14 <=1 
C441: x13+x15 <=1 
C442: x13+x16-y13_16 <=1 
C443: x13+x17-y13_17 <=1 
C444: x13+x20 <=1 
C445: x13+x22-y13_22 <=1 
C446: x13+x23 <=1 
C447: x13+x24 <=1 
C448: x13+x25-y13_25 <=1 
C449: x13+x27 <=1 
C450: x13+x29 <=1 
C451: x13+x31 <=1 
C452: x13+x32-y13_32 <=1 
C453: x13+x33 <=1 
C454: x13+x34-y13_34 <=1 
C455: x13+x35 <=1 
C456: x13+x36-y13_36 <=1 
C457: x13+x38-y13_38 <=1 
C458: x13+x39 <=1 
C459: x13+x40-y13_40 <=1 
C460: x13+x41 <=1 
C461: x13+x42 <=1 
C462: x13+x45 <=1 
C463: x13+x46 <=1 
C464: x13+x48 <=1 
C465: x13+x50 <=1 
C466: x13+x51 <=1 
C467: x13+x52 <=1 
C468: x13+x53 <=1 
C469: x13+x54-y13_54 <=1 
C470: x13+x55-y13_55 <=1 
C471: x13+x59 <=1 
C472: x13+x60-y13_60 <=1 
C473: x13+x61 <=1 
C474: x13+x62 <=1 
C475: x13+x63-y13_63 <=1 
C476: x13+x64-y13_64 <=1 
C477: x14+x15-y14_15 <=1 
C478: x14+x16-y14_16 <=1 
C479: x14+x19-y14_19 <=1 
C480: x14+x23-y14_23 <=1 
C481: x14+x24 <=1 
C482: x14+x25-y14_25 <=1 
C483: x14+x26 <=1 
C484: x14+x27 <=1 
C485: x14+x30-y14_30 <=1 
C486: x14+x31-y14_31 <=1 
C487: x14+x32-y14_32 <=1 
C488: x14+x33 <=1 
C489: x14+x35 <=1 
C490: x14+x36-y14_36 <=1 
C491: x14+x38-y14_38 <=1 
C492: x14+x41 <=1 
C493: x14+x42-y14_42 <=1 
C494: x14+x44 <=1 
C495: x14+x45 <=1 
C496: x14+x47-y14_47 <=1 
C497: x14+x48-y14_48 <=1 
C498: x14+x50-y14_50 <=1 
C499: x14+x54 <=1 
C500: x14+x56-y14_56 <=1 
C501: x14+x57 <=1 
C502: x14+x59-y14_59 <=1 
C503: x14+x60 <=1 
C504: x14+x61-y14_61 <=1 
C505: x14+x62-y14_62 <=1 
C506: x14+x63 <=1 
C507: x14+x64-y14_64 <=1 
C508: x15+x16-y15_16 <=1 
C509: x15+x19 <=1 
C510: x15+x21 <=1 
C511: x15+x22 <=1 
C512: x15+x23-y15_23 <=1 
C513: x15+x24 <=1 
C514: x15+x25-y15_25 <=1 
C515: x15+x28 <=1 
C516: x15+x29 <=1 
C517: x15+x30-y15_30 <=1 
C518: x15+x34-y15_34 <=1 
C519: x15+x35-y15_35 <=1 
C520: x15+x36 <=1 
C521: x15+x39 <=1 
C522: x15+x40-y15_40 <=1 
C523: x15+x41-y15_41 <=1 
C524: x15+x42 <=1 
C525: x15+x43-y15_43 <=1 
C526: x15+x45 <=1 
C527: x15+x46-y15_46 <=1 
C528: x15+x47 <=1 
C529: x15+x49 <=1 
C530: x15+x50-y15_50 <=1 
C531: x15+x55 <=1 
C532: x15+x56-y15_56 <=1 
C533: x15+x57 <=1 
C534: x15+x58-y15_58 <=1 
C535: x15+x59-y15_59 <=1 
C536: x15+x60-y15_60 <=1 
C537: x15+x61 <=1 
C538: x15+x62 <=1 
C539: x15+x64 <=1 
C540: x16+x17 <=1 
C541: x16+x18 <=1 
C542: x16+x19-y16_19 <=1 
C543: x16+x21 <=1 
C544: x16+x22-y16_22 <=1 
C545: x16+x24 <=1 
C546: x16+x25-y16_25 <=1 
C547: x16+x27 <=1 
C548: x16+x28 <=1 
C549: x16+x30-y16_30 <=1 
C550: x16+x32 <=1 
C551: x16+x33-y16_33 <=1 
C552: x16+x35-y16_35 <=1 
C553: x16+x37 <=1 
C554: x16+x38-y16_38 <=1 
C555: x16+x41 <=1 
C556: x16+x42-y16_42 <=1 
C557: x16+x43 <=1 
C558: x16+x45 <=1 
C559: x16+x46-y16_46 <=1 
C560: x16+x47-y16_47 <=1 
C561: x16+x49-y16_49 <=1 
C562: x16+x51-y16_51 <=1 
C563: x16+x52 <=1 
C564: x16+x53 <=1 
C565: x16+x54 <=1 
C566: x16+x55 <=1 
C567: x16+x57 <=1 
C568: x16+x58-y16_58 <=1 
C569: x16+x60-y16_60 <=1 
C570: x16+x63-y16_63 <=1 
C571: x17+x18 <=1 
C572: x17+x19 <=1 
C573: x17+x20 <=1 
C574: x17+x22 <=1 
C575: x17+x23-y17_23 <=1 
C576: x17+x24-y17_24 <=1 
C577: x17+x25 <=1 
C578: x17+x32-y17_32 <=1 
C579: x17+x33 <=1 
C580: x17+x35 <=1 
C581: x17+x36 <=1 
C582: x17+x37-y17_37 <=1 
C583: x17+x40-y17_40 <=1 
C584: x17+x41-y17_41 <=1 
C585: x17+x42-y17_42 <=1 
C586: x17+x44-y17_44 <=1 
C587: x17+x45 <=1 
C588: x17+x46 <=1 
C589: x17+x48 <=1 
C590: x17+x49-y17_49 <=1 
C591: x17+x50 <=1 
C592: x17+x51-y17_51 <=1 
C593: x17+x53 <=1 
C594: x17+x55-y17_55 <=1 
C595: x17+x56-y17_56 <=1 
C596: x17+x58-y17_58 <=1 
C597: x17+x61 <=1 
C598: x17+x62 <=1 
C599: x17+x64 <=1 
C600: x18+x19 <=1 
C601: x18+x20-y18_20 <=1 
C602: x18+x21-y18_21 <=1 
C603: x18+x23-y18_23 <=1 
C604: x18+x24-y18_24 <=1 
C605: x18+x25-y18_25 <=1 
C606: x18+x27-y18_27 <=1 
C607: x18+x28-y18_28 <=1 
C608: x18+x30 <=1 
C609: x18+x31-y18_31 <=1 
C610: x18+x34 <=1 
C611: x18+x35-y18_35 <=1 
C612: x18+x37 <=1 
C613: x18+x38-y18_38 <=1 
C614: x18+x40 <=1 
C615: x18+x42-y18_42 <=1 
C616: x18+x44 <=1 
C617: x18+x51-y18_51 <=1 
C618: x18+x53 <=1 
C619: x18+x54 <=1 
C620: x18+x55-y18_55 <=1 
C621: x18+x56 <=1 
C622: x18+x57-y18_57 <=1 
C623: x18+x58-y18_58 <=1 
C624: x18+x61-y18_61 <=1 
C625: x18+x64 <=1 
C626: x19+x20 <=1 
C627: x19+x22 <=1 
C628: x19+x23-y19_23 <=1 
C629: x19+x24 <=1 
C630: x19+x25-y19_25 <=1 
C631: x19+x28-y19_28 <=1 
C632: x19+x30 <=1 
C633: x19+x31-y19_31 <=1 
C634: x19+x34-y19_34 <=1 
C635: x19+x35 <=1 
C636: x19+x39 <=1 
C637: x19+x42-y19_42 <=1 
C638: x19+x44-y19_44 <=1 
C639: x19+x45 <=1 
C640: x19+x47-y19_47 <=1 
C641: x19+x48-y19_48 <=1 
C642: x19+x50-y19_50 <=1 
C643: x19+x52 <=1 
C644: x19+x54-y19_54 <=1 
C645: x19+x55-y19_55 <=1 
C646: x19+x57 <=1 
C647: x19+x58-y19_58 <=1 
C648: x19+x60 <=1 
C649: x19+x61-y19_61 <=1 
C650: x19+x62-y19_62 <=1 
C651: x19+x64 <=1 
C652: x20+x21-y20_21 <=1 
C653: x20+x22 <=1 
C654: x20+x23-y20_23 <=1 
C655: x20+x24-y20_24 <=1 
C656: x20+x26-y20_26 <=1 
C657: x20+x28 <=1 
C658: x20+x29-y20_29 <=1 
C659: x20+x30-y20_30 <=1 
C660: x20+x33-y20_33 <=1 
C661: x20+x35-y20_35 <=1 
C662: x20+x38 <=1 
C663: x20+x39-y20_39 <=1 
C664: x20+x40 <=1 
C665: x20+x41 <=1 
C666: x20+x42 <=1 
C667: x20+x43 <=1 
C668: x20+x44-y20_44 <=1 
C669: x20+x46-y20_46 <=1 
C670: x20+x47 <=1 
C671: x20+x52 <=1 
C672: x20+x58 <=1 
C673: x20+x59-y20_59 <=1 
C674: x20+x60-y20_60 <=1 
C675: x21+x23 <=1 
C676: x21+x24 <=1 
C677: x21+x25 <=1 
C678: x21+x26 <=1 
C679: x21+x27 <=1 
C680: x21+x29-y21_29 <=1 
C681: x21+x30 <=1 
C682: x21+x33 <=1 
C683: x21+x34 <=1 
C684: x21+x36 <=1 
C685: x21+x38 <=1 
C686: x21+x39-y21_39 <=1 
C687: x21+x40 <=1 
C688: x21+x41 <=1 
C689: x21+x42-y21_42 <=1 
C690: x21+x43-y21_43 <=1 
C691: x21+x44-y21_44 <=1 
C692: x21+x45 <=1 
C693: x21+x47-y21_47 <=1 
C694: x21+x50 <=1 
C695: x21+x51-y21_51 <=1 
C696: x21+x53-y21_53 <=1 
C697: x21+x54 <=1 
C698: x21+x55-y21_55 <=1 
C699: x21+x56-y21_56 <=1 
C700: x21+x58 <=1 
C701: x21+x59-y21_59 <=1 
C702: x21+x62 <=1 
C703: x21+x64 <=1 
C704: x22+x23-y22_23 <=1 
C705: x22+x24-y22_24 <=1 
C706: x22+x25 <=1 
C707: x22+x27 <=1 
C708: x22+x28 <=1 
C709: x22+x32-y22_32 <=1 
C710: x22+x33-y22_33 <=1 
C711: x22+x34 <=1 
C712: x22+x35-y22_35 <=1 
C713: x22+x37 <=1 
C714: x22+x38 <=1 
C715: x22+x39 <=1 
C716: x22+x41-y22_41 <=1 
C717: x22+x43 <=1 
C718: x22+x44-y22_44 <=1 
C719: x22+x45-y22_45 <=1 
C720: x22+x46-y22_46 <=1 
C721: x22+x47-y22_47 <=1 
C722: x22+x48-y22_48 <=1 
C723: x22+x50-y22_50 <=1 
C724: x22+x51-y22_51 <=1 
C725: x22+x54-y22_54 <=1 
C726: x22+x56 <=1 
C727: x22+x57-y22_57 <=1 
C728: x22+x58-y22_58 <=1 
C729: x22+x59-y22_59 <=1 
C730: x22+x60 <=1 
C731: x22+x62-y22_62 <=1 
C732: x22+x63 <=1 
C733: x22+x64 <=1 
C734: x23+x24-y23_24 <=1 
C735: x23+x25 <=1 
C736: x23+x27-y23_27 <=1 
C737: x23+x28-y23_28 <=1 
C738: x23+x29 <=1 
C739: x23+x31-y23_31 <=1 
C740: x23+x32-y23_32 <=1 
C741: x23+x33 <=1 
C742: x23+x34-y23_34 <=1 
C743: x23+x37 <=1 
C744: x23+x40 <=1 
C745: x23+x42 <=1 
C746: x23+x45-y23_45 <=1 
C747: x23+x46-y23_46 <=1 
C748: x23+x47-y23_47 <=1 
C749: x23+x49-y23_49 <=1 
C750: x23+x51 <=1 
C751: x23+x54-y23_54 <=1 
C752: x23+x55-y23_55 <=1 
C753: x23+x56-y23_56 <=1 
C754: x23+x57 <=1 
C755: x23+x58 <=1 
C756: x23+x61-y23_61 <=1 
C757: x23+x62-y23_62 <=1 
C758: x24+x26 <=1 
C759: x24+x28 <=1 
C760: x24+x29-y24_29 <=1 
C761: x24+x30 <=1 
C762: x24+x32 <=1 
C763: x24+x36-y24_36 <=1 
C764: x24+x38 <=1 
C765: x24+x39-y24_39 <=1 
C766: x24+x40-y24_40 <=1 
C767: x24+x41-y24_41 <=1 
C768: x24+x42-y24_42 <=1 
C769: x24+x43-y24_43 <=1 
C770: x24+x44-y24_44 <=1 
C771: x24+x48 <=1 
C772: x24+x49 <=1 
C773: x24+x50-y24_50 <=1 
C774: x24+x51-y24_51 <=1 
C775: x24+x53-y24_53 <=1 
C776: x24+x56 <=1 
C777: x24+x58-y24_58 <=1 
C778: x24+x59-y24_59 <=1 
C779: x24+x60 <=1 
C780: x24+x61 <=1 
C781: x24+x64 <=1 
C782: x25+x26 <=1 
C783: x25+x27-y25_27 <=1 
C784: x25+x29 <=1 
C785: x25+x30 <=1 
C786: x25+x31-y25_31 <=1 
C787: x25+x32 <=1 
C788: x25+x34 <=1 
C789: x25+x35 <=1 
C790: x25+x39 <=1 
C791: x25+x43-y25_43 <=1 
C792: x25+x44-y25_44 <=1 
C793: x25+x45-y25_45 <=1 
C794: x25+x46-y25_46 <=1 
C795: x25+x47-y25_47 <=1 
C796: x25+x49-y25_49 <=1 
C797: x25+x53-y25_53 <=1 
C798: x25+x54-y25_54 <=1 
C799: x25+x57-y25_57 <=1 
C800: x25+x58-y25_58 <=1 
C801: x25+x61 <=1 
C802: x25+x63 <=1 
C803: x26+x28-y26_28 <=1 
C804: x26+x29 <=1 
C805: x26+x30 <=1 
C806: x26+x32-y26_32 <=1 
C807: x26+x34 <=1 
C808: x26+x37 <=1 
C809: x26+x41-y26_41 <=1 
C810: x26+x42-y26_42 <=1 
C811: x26+x43 <=1 
C812: x26+x44-y26_44 <=1 
C813: x26+x47 <=1 
C814: x26+x48-y26_48 <=1 
C815: x26+x50 <=1 
C816: x26+x52-y26_52 <=1 
C817: x26+x53 <=1 
C818: x26+x54 <=1 
C819: x26+x55-y26_55 <=1 
C820: x26+x57 <=1 
C821: x26+x58-y26_58 <=1 
C822: x26+x60 <=1 
C823: x26+x61-y26_61 <=1 
C824: x26+x62-y26_62 <=1 
C825: x27+x29-y27_29 <=1 
C826: x27+x32-y27_32 <=1 
C827: x27+x33 <=1 
C828: x27+x35 <=1 
C829: x27+x37 <=1 
C830: x27+x39-y27_39 <=1 
C831: x27+x41-y27_41 <=1 
C832: x27+x44-y27_44 <=1 
C833: x27+x46 <=1 
C834: x27+x48 <=1 
C835: x27+x49 <=1 
C836: x27+x51 <=1 
C837: x27+x52-y27_52 <=1 
C838: x27+x55 <=1 
C839: x27+x57-y27_57 <=1 
C840: x27+x58 <=1 
C841: x27+x59 <=1 
C842: x27+x60 <=1 
C843: x27+x61-y27_61 <=1 
C844: x27+x62 <=1 
C845: x27+x63-y27_63 <=1 
C846: x27+x64 <=1 
C847: x28+x29-y28_29 <=1 
C848: x28+x30-y28_30 <=1 
C849: x28+x34 <=1 
C850: x28+x35-y28_35 <=1 
C851: x28+x37-y28_37 <=1 
C852: x28+x38 <=1 
C853: x28+x40-y28_40 <=1 
C854: x28+x42 <=1 
C855: x28+x48 <=1 
C856: x28+x51-y28_51 <=1 
C857: x28+x54-y28_54 <=1 
C858: x28+x55 <=1 
C859: x28+x56 <=1 
C860: x28+x58 <=1 
C861: x28+x61-y28_61 <=1 
C862: x28+x62-y28_62 <=1 
C863: x28+x63-y28_63 <=1 
C864: x28+x64 <=1 
C865: x29+x30-y29_30 <=1 
C866: x29+x32-y29_32 <=1 
C867: x29+x34 <=1 
C868: x29+x36 <=1 
C869: x29+x37 <=1 
C870: x29+x38 <=1 
C871: x29+x39-y29_39 <=1 
C872: x29+x41-y29_41 <=1 
C873: x29+x42-y29_42 <=1 
C874: x29+x43-y29_43 <=1 
C875: x29+x44 <=1 
C876: x29+x45 <=1 
C877: x29+x47-y29_47 <=1 
C878: x29+x48-y29_48 <=1 
C879: x29+x49-y29_49 <=1 
C880: x29+x50 <=1 
C881: x29+x52 <=1 
C882: x29+x53 <=1 
C883: x29+x54-y29_54 <=1 
C884: x29+x55 <=1 
C885: x29+x56 <=1 
C886: x29+x58 <=1 
C887: x29+x59 <=1 
C888: x29+x61-y29_61 <=1 
C889: x29+x62 <=1 
C890: x29+x64-y29_64 <=1 
C891: x30+x32-y30_32 <=1 
C892: x30+x33 <=1 
C893: x30+x34 <=1 
C894: x30+x35-y30_35 <=1 
C895: x30+x38-y30_38 <=1 
C896: x30+x40 <=1 
C897: x30+x43-y30_43 <=1 
C898: x30+x44 <=1 
C899: x30+x46-y30_46 <=1 
C900: x30+x47 <=1 
C901: x30+x48-y30_48 <=1 
C902: x30+x53 <=1 
C903: x30+x58-y30_58 <=1 
C904: x30+x59-y30_59 <=1 
C905: x30+x62-y30_62 <=1 
C906: x30+x63 <=1 
C907: x30+x64-y30_64 <=1 
C908: x31+x32-y31_32 <=1 
C909: x31+x33 <=1 
C910: x31+x35 <=1 
C911: x31+x38 <=1 
C912: x31+x40-y31_40 <=1 
C913: x31+x41 <=1 
C914: x31+x43-y31_43 <=1 
C915: x31+x44 <=1 
C916: x31+x45 <=1 
C917: x31+x47 <=1 
C918: x31+x48 <=1 
C919: x31+x50-y31_50 <=1 
C920: x31+x52 <=1 
C921: x31+x53-y31_53 <=1 
C922: x31+x54-y31_54 <=1 
C923: x31+x56-y31_56 <=1 
C924: x31+x57-y31_57 <=1 
C925: x31+x58-y31_58 <=1 
C926: x31+x59-y31_59 <=1 
C927: x31+x60-y31_60 <=1 
C928: x31+x61 <=1 
C929: x31+x64 <=1 
C930: x32+x33-y32_33 <=1 
C931: x32+x34 <=1 
C932: x32+x35-y32_35 <=1 
C933: x32+x36 <=1 
C934: x32+x40 <=1 
C935: x32+x41 <=1 
C936: x32+x46-y32_46 <=1 
C937: x32+x47 <=1 
C938: x32+x48-y32_48 <=1 
C939: x32+x50 <=1 
C940: x32+x51 <=1 
C941: x32+x52 <=1 
C942: x32+x57-y32_57 <=1 
C943: x32+x59 <=1 
C944: x32+x60 <=1 
C945: x32+x63 <=1 
C946: x32+x64 <=1 
C947: x33+x34-y33_34 <=1 
C948: x33+x36-y33_36 <=1 
C949: x33+x41 <=1 
C950: x33+x43 <=1 
C951: x33+x44 <=1 
C952: x33+x46 <=1 
C953: x33+x47-y33_47 <=1 
C954: x33+x51 <=1 
C955: x33+x52-y33_52 <=1 
C956: x33+x54-y33_54 <=1 
C957: x33+x55-y33_55 <=1 
C958: x33+x56-y33_56 <=1 
C959: x33+x59 <=1 
C960: x33+x61 <=1 
C961: x33+x62 <=1 
C962: x33+x64 <=1 
C963: x34+x35 <=1 
C964: x34+x36 <=1 
C965: x34+x37 <=1 
C966: x34+x38-y34_38 <=1 
C967: x34+x40 <=1 
C968: x34+x41-y34_41 <=1 
C969: x34+x43 <=1 
C970: x34+x44-y34_44 <=1 
C971: x34+x45 <=1 
C972: x34+x46 <=1 
C973: x34+x47 <=1 
C974: x34+x51-y34_51 <=1 
C975: x34+x52-y34_52 <=1 
C976: x34+x53 <=1 
C977: x34+x54-y34_54 <=1 
C978: x34+x57-y34_57 <=1 
C979: x34+x58 <=1 
C980: x34+x59 <=1 
C981: x34+x60-y34_60 <=1 
C982: x34+x62-y34_62 <=1 
C983: x34+x63-y34_63 <=1 
C984: x34+x64-y34_64 <=1 
C985: x35+x36 <=1 
C986: x35+x39 <=1 
C987: x35+x41 <=1 
C988: x35+x42 <=1 
C989: x35+x43-y35_43 <=1 
C990: x35+x44-y35_44 <=1 
C991: x35+x45-y35_45 <=1 
C992: x35+x46 <=1 
C993: x35+x47-y35_47 <=1 
C994: x35+x49 <=1 
C995: x35+x51-y35_51 <=1 
C996: x35+x53-y35_53 <=1 
C997: x35+x54-y35_54 <=1 
C998: x35+x55-y35_55 <=1 
C999: x35+x63-y35_63 <=1 
C1000: x35+x64-y35_64 <=1 
C1001: x36+x37 <=1 
C1002: x36+x38 <=1 
C1003: x36+x39-y36_39 <=1 
C1004: x36+x44-y36_44 <=1 
C1005: x36+x45-y36_45 <=1 
C1006: x36+x46 <=1 
C1007: x36+x47 <=1 
C1008: x36+x48 <=1 
C1009: x36+x50-y36_50 <=1 
C1010: x36+x51-y36_51 <=1 
C1011: x36+x52 <=1 
C1012: x36+x53-y36_53 <=1 
C1013: x36+x56-y36_56 <=1 
C1014: x36+x57-y36_57 <=1 
C1015: x36+x61-y36_61 <=1 
C1016: x36+x63-y36_63 <=1 
C1017: x37+x39-y37_39 <=1 
C1018: x37+x40 <=1 
C1019: x37+x43 <=1 
C1020: x37+x45-y37_45 <=1 
C1021: x37+x46-y37_46 <=1 
C1022: x37+x47 <=1 
C1023: x37+x49-y37_49 <=1 
C1024: x37+x51 <=1 
C1025: x37+x53-y37_53 <=1 
C1026: x37+x58-y37_58 <=1 
C1027: x37+x59-y37_59 <=1 
C1028: x37+x62-y37_62 <=1 
C1029: x38+x39 <=1 
C1030: x38+x40-y38_40 <=1 
C1031: x38+x42 <=1 
C1032: x38+x47 <=1 
C1033: x38+x49-y38_49 <=1 
C1034: x38+x51-y38_51 <=1 
C1035: x38+x52 <=1 
C1036: x38+x55 <=1 
C1037: x38+x57 <=1 
C1038: x38+x58 <=1 
C1039: x38+x59 <=1 
C1040: x38+x60-y38_60 <=1 
C1041: x38+x62 <=1 
C1042: x38+x63-y38_63 <=1 
C1043: x39+x40-y39_40 <=1 
C1044: x39+x42 <=1 
C1045: x39+x44 <=1 
C1046: x39+x45 <=1 
C1047: x39+x47-y39_47 <=1 
C1048: x39+x48 <=1 
C1049: x39+x49-y39_49 <=1 
C1050: x39+x50 <=1 
C1051: x39+x51 <=1 
C1052: x39+x52-y39_52 <=1 
C1053: x39+x53-y39_53 <=1 
C1054: x39+x56-y39_56 <=1 
C1055: x39+x58-y39_58 <=1 
C1056: x39+x59-y39_59 <=1 
C1057: x39+x60-y39_60 <=1 
C1058: x39+x61 <=1 
C1059: x39+x62 <=1 
C1060: x39+x64-y39_64 <=1 
C1061: x40+x41-y40_41 <=1 
C1062: x40+x42 <=1 
C1063: x40+x44-y40_44 <=1 
C1064: x40+x46-y40_46 <=1 
C1065: x40+x47-y40_47 <=1 
C1066: x40+x48-y40_48 <=1 
C1067: x40+x49-y40_49 <=1 
C1068: x40+x50-y40_50 <=1 
C1069: x40+x52 <=1 
C1070: x40+x53-y40_53 <=1 
C1071: x40+x56 <=1 
C1072: x40+x57 <=1 
C1073: x40+x59 <=1 
C1074: x40+x60-y40_60 <=1 
C1075: x40+x61 <=1 
C1076: x40+x62 <=1 
C1077: x40+x64-y40_64 <=1 
C1078: x41+x43-y41_43 <=1 
C1079: x41+x45 <=1 
C1080: x41+x46-y41_46 <=1 
C1081: x41+x51 <=1 
C1082: x41+x52 <=1 
C1083: x41+x53-y41_53 <=1 
C1084: x41+x54-y41_54 <=1 
C1085: x41+x55 <=1 
C1086: x41+x56-y41_56 <=1 
C1087: x41+x57-y41_57 <=1 
C1088: x41+x58 <=1 
C1089: x41+x63-y41_63 <=1 
C1090: x42+x43-y42_43 <=1 
C1091: x42+x45-y42_45 <=1 
C1092: x42+x46 <=1 
C1093: x42+x48 <=1 
C1094: x42+x49 <=1 
C1095: x42+x50 <=1 
C1096: x42+x51-y42_51 <=1 
C1097: x42+x52-y42_52 <=1 
C1098: x42+x53 <=1 
C1099: x42+x54-y42_54 <=1 
C1100: x42+x57 <=1 
C1101: x42+x60 <=1 
C1102: x42+x61-y42_61 <=1 
C1103: x42+x62 <=1 
C1104: x43+x45-y43_45 <=1 
C1105: x43+x46 <=1 
C1106: x43+x47-y43_47 <=1 
C1107: x43+x50-y43_50 <=1 
C1108: x43+x54-y43_54 <=1 
C1109: x43+x58 <=1 
C1110: x43+x61 <=1 
C1111: x43+x62 <=1 
C1112: x43+x63 <=1 
C1113: x43+x64-y43_64 <=1 
C1114: x44+x45 <=1 
C1115: x44+x49 <=1 
C1116: x44+x50-y44_50 <=1 
C1117: x44+x51 <=1 
C1118: x44+x52-y44_52 <=1 
C1119: x44+x54-y44_54 <=1 
C1120: x44+x55-y44_55 <=1 
C1121: x44+x56 <=1 
C1122: x44+x57-y44_57 <=1 
C1123: x44+x58 <=1 
C1124: x44+x59-y44_59 <=1 
C1125: x44+x61-y44_61 <=1 
C1126: x44+x62-y44_62 <=1 
C1127: x44+x64-y44_64 <=1 
C1128: x45+x46-y45_46 <=1 
C1129: x45+x47 <=1 
C1130: x45+x48 <=1 
C1131: x45+x49-y45_49 <=1 
C1132: x45+x51-y45_51 <=1 
C1133: x45+x52-y45_52 <=1 
C1134: x45+x54-y45_54 <=1 
C1135: x45+x57 <=1 
C1136: x45+x59-y45_59 <=1 
C1137: x45+x60-y45_60 <=1 
C1138: x45+x64-y45_64 <=1 
C1139: x46+x48 <=1 
C1140: x46+x50 <=1 
C1141: x46+x51-y46_51 <=1 
C1142: x46+x52-y46_52 <=1 
C1143: x46+x53-y46_53 <=1 
C1144: x46+x55-y46_55 <=1 
C1145: x46+x57-y46_57 <=1 
C1146: x46+x58-y46_58 <=1 
C1147: x46+x60 <=1 
C1148: x46+x63 <=1 
C1149: x46+x64-y46_64 <=1 
C1150: x47+x48-y47_48 <=1 
C1151: x47+x49 <=1 
C1152: x47+x50-y47_50 <=1 
C1153: x47+x51 <=1 
C1154: x47+x52 <=1 
C1155: x47+x53-y47_53 <=1 
C1156: x47+x56 <=1 
C1157: x47+x58 <=1 
C1158: x47+x59-y47_59 <=1 
C1159: x47+x60-y47_60 <=1 
C1160: x47+x62 <=1 
C1161: x47+x63 <=1 
C1162: x47+x64 <=1 
C1163: x48+x49 <=1 
C1164: x48+x51-y48_51 <=1 
C1165: x48+x52 <=1 
C1166: x48+x53-y48_53 <=1 
C1167: x48+x54 <=1 
C1168: x48+x55-y48_55 <=1 
C1169: x48+x59-y48_59 <=1 
C1170: x48+x61 <=1 
C1171: x48+x62 <=1 
C1172: x48+x63 <=1 
C1173: x49+x50 <=1 
C1174: x49+x51 <=1 
C1175: x49+x53 <=1 
C1176: x49+x55-y49_55 <=1 
C1177: x49+x56-y49_56 <=1 
C1178: x49+x57 <=1 
C1179: x49+x61 <=1 
C1180: x49+x63 <=1 
C1181: x49+x64 <=1 
C1182: x50+x51 <=1 
C1183: x50+x52-y50_52 <=1 
C1184: x50+x53-y50_53 <=1 
C1185: x50+x56-y50_56 <=1 
C1186: x50+x57-y50_57 <=1 
C1187: x50+x58 <=1 
C1188: x50+x61-y50_61 <=1 
C1189: x50+x63-y50_63 <=1 
C1190: x50+x64 <=1 
C1191: x51+x55-y51_55 <=1 
C1192: x51+x57-y51_57 <=1 
C1193: x51+x59-y51_59 <=1 
C1194: x51+x60-y51_60 <=1 
C1195: x51+x62 <=1 
C1196: x52+x54-y52_54 <=1 
C1197: x52+x55 <=1 
C1198: x52+x56 <=1 
C1199: x52+x61 <=1 
C1200: x52+x62 <=1 
C1201: x52+x64-y52_64 <=1 
C1202: x53+x54 <=1 
C1203: x53+x57-y53_57 <=1 
C1204: x53+x58-y53_58 <=1 
C1205: x53+x59 <=1 
C1206: x53+x60 <=1 
C1207: x53+x61 <=1 
C1208: x53+x63 <=1 
C1209: x54+x55-y54_55 <=1 
C1210: x54+x56 <=1 
C1211: x54+x57 <=1 
C1212: x54+x58-y54_58 <=1 
C1213: x54+x61-y54_61 <=1 
C1214: x54+x63 <=1 
C1215: x55+x56 <=1 
C1216: x55+x58-y55_58 <=1 
C1217: x55+x59-y55_59 <=1 
C1218: x55+x61 <=1 
C1219: x55+x62 <=1 
C1220: x55+x63 <=1 
C1221: x56+x60 <=1 
C1222: x56+x61-y56_61 <=1 
C1223: x56+x63-y56_63 <=1 
C1224: x57+x58-y57_58 <=1 
C1225: x57+x60-y57_60 <=1 
C1226: x57+x62-y57_62 <=1 
C1227: x57+x63-y57_63 <=1 
C1228: x58+x60 <=1 
C1229: x58+x61 <=1 
C1230: x58+x63 <=1 
C1231: x58+x64-y58_64 <=1 
C1232: x59+x62-y59_62 <=1 
C1233: x59+x63 <=1 
C1234: x59+x64 <=1 
C1235: x60+x61-y60_61 <=1 
C1236: x60+x62-y60_62 <=1 
C1237: x61+x62 <=1 
C1238: x62+x63 <=1 
C1239: x62+x64-y62_64 <=1 
C1240: x63+x64 <=1 

binary
x0
x1
x2
x3
x4
x5
x6
x7
x8
x9
x10
x11
x12
x13
x14
x15
x16
x17
x18
x19
x20
x21
x22
x23
x24
x25
x26
x27
x28
x29
x30
x31
x32
x33
x34
x35
x36
x37
x38
x39
x40
x41
x42
x43
x44
x45
x46
x47
x48
x49
x50
x51
x52
x53
x54
x55
x56
x57
x58
x59
x60
x61
x62
x63
x64
