problem_generation/data/GISP/train/er_n=65_m=1240_p=0.60_SET2_setparam=100.00_alpha=0.50_807.sol
objective value:                                 1181
x8                                                  1 	(obj:100)
x10                                                 1 	(obj:100)
x11                                                 1 	(obj:100)
x14                                                 1 	(obj:100)
x30                                                 1 	(obj:100)
x31                                                 1 	(obj:100)
x32                                                 1 	(obj:100)
x37                                                 1 	(obj:100)
x39                                                 1 	(obj:100)
x46                                                 1 	(obj:100)
x49                                                 1 	(obj:100)
x55                                                 1 	(obj:100)
y14_32                                              1 	(obj:-1)
y10_39                                              1 	(obj:-1)
y46_55                                              1 	(obj:-1)
y30_46                                              1 	(obj:-1)
y8_55                                               1 	(obj:-1)
y49_55                                              1 	(obj:-1)
y8_49                                               1 	(obj:-1)
y31_32                                              1 	(obj:-1)
y37_39                                              1 	(obj:-1)
y14_31                                              1 	(obj:-1)
y14_30                                              1 	(obj:-1)
y10_14                                              1 	(obj:-1)
y39_49                                              1 	(obj:-1)
y32_46                                              1 	(obj:-1)
y11_39                                              1 	(obj:-1)
y37_46                                              1 	(obj:-1)
y37_49                                              1 	(obj:-1)
y10_46                                              1 	(obj:-1)
y30_32                                              1 	(obj:-1)
